c User generated cnf file
p cnf 10 46
4 -6 1 0 
1 -2 5 0 
1 -8 4 0 
6 -8 9 0 
7 5 -7 0 
4 4 -2 0 
8 -7 9 0 
1 -3 5 0 
4 -6 7 0 
9 -1 10 0 
3 -5 10 0 
1 -3 3 0 
5 10 -4 0 
1 -3 2 0 
7 -6 2 0 
5 -6 3 0 
10 -7 1 0 
8 -1 2 0 
2 -5 7 0 
9 7 -8 0 
10 -7 1 0 
2 -2 10 0 
1 9 -8 0 
6 5 -6 0 
7 1 -1 0 
5 1 -4 0 
4 3 -3 0 
6 7 -6 0 
7 -8 1 0 
1 10 -5 0 
8 -2 10 0 
7 4 -1 0 
2 3 -1 0 
9 5 -3 0 
3 5 -6 0 
6 6 -2 0 
5 -6 4 0 
5 6 -5 0 
10 7 -3 0 
3 7 -1 0 
3 -1 1 0 
6 1 -10 0 
3 3 -10 0 
2 -3 8 0 
3 9 -6 0 
8 -5 8 0 
